c generated by sgen
p cnf 129 268
-2 -3 -4 0
-1 -3 -4 0
-1 -2 -4 0
-1 -2 -3 0
-6 -7 -8 0
-5 -7 -8 0
-5 -6 -8 0
-5 -6 -7 0
-10 -11 -12 0
-9 -11 -12 0
-9 -10 -12 0
-9 -10 -11 0
-14 -15 -16 0
-13 -15 -16 0
-13 -14 -16 0
-13 -14 -15 0
-18 -19 -20 0
-17 -19 -20 0
-17 -18 -20 0
-17 -18 -19 0
-22 -23 -24 0
-21 -23 -24 0
-21 -22 -24 0
-21 -22 -23 0
-26 -27 -28 0
-25 -27 -28 0
-25 -26 -28 0
-25 -26 -27 0
-30 -31 -32 0
-29 -31 -32 0
-29 -30 -32 0
-29 -30 -31 0
-34 -35 -36 0
-33 -35 -36 0
-33 -34 -36 0
-33 -34 -35 0
-38 -39 -40 0
-37 -39 -40 0
-37 -38 -40 0
-37 -38 -39 0
-42 -43 -44 0
-41 -43 -44 0
-41 -42 -44 0
-41 -42 -43 0
-46 -47 -48 0
-45 -47 -48 0
-45 -46 -48 0
-45 -46 -47 0
-50 -51 -52 0
-49 -51 -52 0
-49 -50 -52 0
-49 -50 -51 0
-54 -55 -56 0
-53 -55 -56 0
-53 -54 -56 0
-53 -54 -55 0
-58 -59 -60 0
-57 -59 -60 0
-57 -58 -60 0
-57 -58 -59 0
-62 -63 -64 0
-61 -63 -64 0
-61 -62 -64 0
-61 -62 -63 0
-66 -67 -68 0
-65 -67 -68 0
-65 -66 -68 0
-65 -66 -67 0
-70 -71 -72 0
-69 -71 -72 0
-69 -70 -72 0
-69 -70 -71 0
-74 -75 -76 0
-73 -75 -76 0
-73 -74 -76 0
-73 -74 -75 0
-78 -79 -80 0
-77 -79 -80 0
-77 -78 -80 0
-77 -78 -79 0
-82 -83 -84 0
-81 -83 -84 0
-81 -82 -84 0
-81 -82 -83 0
-86 -87 -88 0
-85 -87 -88 0
-85 -86 -88 0
-85 -86 -87 0
-90 -91 -92 0
-89 -91 -92 0
-89 -90 -92 0
-89 -90 -91 0
-94 -95 -96 0
-93 -95 -96 0
-93 -94 -96 0
-93 -94 -95 0
-98 -99 -100 0
-97 -99 -100 0
-97 -98 -100 0
-97 -98 -99 0
-102 -103 -104 0
-101 -103 -104 0
-101 -102 -104 0
-101 -102 -103 0
-106 -107 -108 0
-105 -107 -108 0
-105 -106 -108 0
-105 -106 -107 0
-110 -111 -112 0
-109 -111 -112 0
-109 -110 -112 0
-109 -110 -111 0
-114 -115 -116 0
-113 -115 -116 0
-113 -114 -116 0
-113 -114 -115 0
-118 -119 -120 0
-117 -119 -120 0
-117 -118 -120 0
-117 -118 -119 0
-122 -123 -124 0
-121 -123 -124 0
-121 -122 -124 0
-121 -122 -123 0
-125 -126 -127 0
-125 -126 -128 0
-125 -126 -129 0
-125 -127 -128 0
-125 -127 -129 0
-125 -128 -129 0
-126 -127 -128 0
-126 -127 -129 0
-126 -128 -129 0
-127 -128 -129 0
124 42 102 0
37 42 102 0
37 124 102 0
37 124 42 0
83 98 70 0
13 98 70 0
13 83 70 0
13 83 98 0
45 33 62 0
56 33 62 0
56 45 62 0
56 45 33 0
29 75 112 0
97 75 112 0
97 29 112 0
97 29 75 0
24 115 91 0
27 115 91 0
27 24 91 0
27 24 115 0
84 108 116 0
87 108 116 0
87 84 116 0
87 84 108 0
60 127 25 0
48 127 25 0
48 60 25 0
48 60 127 0
43 32 85 0
1 32 85 0
1 43 85 0
1 43 32 0
15 9 126 0
104 9 126 0
104 15 126 0
104 15 9 0
39 49 21 0
78 49 21 0
78 39 21 0
78 39 49 0
129 123 66 0
64 123 66 0
64 129 66 0
64 129 123 0
72 105 36 0
125 105 36 0
125 72 36 0
125 72 105 0
82 54 5 0
23 54 5 0
23 82 5 0
23 82 54 0
11 65 113 0
96 65 113 0
96 11 113 0
96 11 65 0
22 30 46 0
93 30 46 0
93 22 46 0
93 22 30 0
58 103 31 0
35 103 31 0
35 58 31 0
35 58 103 0
14 107 92 0
120 107 92 0
120 14 92 0
120 14 107 0
81 119 19 0
73 119 19 0
73 81 19 0
73 81 119 0
44 10 117 0
77 10 117 0
77 44 117 0
77 44 10 0
59 53 2 0
95 53 2 0
95 59 2 0
95 59 53 0
50 71 8 0
28 71 8 0
28 50 8 0
28 50 71 0
122 106 74 0
47 106 74 0
47 122 74 0
47 122 106 0
16 20 86 0
7 20 86 0
7 16 86 0
7 16 20 0
109 34 114 0
41 34 114 0
41 109 114 0
41 109 34 0
128 3 40 0
118 3 40 0
118 128 40 0
118 128 3 0
4 100 80 0
63 100 80 0
63 4 80 0
63 4 100 0
67 55 17 0
111 55 17 0
111 67 17 0
111 67 55 0
51 94 89 0
61 94 89 0
61 51 89 0
61 51 94 0
12 26 121 0
110 26 121 0
110 12 121 0
110 12 26 0
99 6 38 0
57 6 38 0
57 99 38 0
57 99 6 0
69 18 79 0
90 18 79 0
90 69 79 0
90 69 18 0
101 76 88 0
101 76 68 0
101 76 52 0
101 88 68 0
101 88 52 0
101 68 52 0
76 88 68 0
76 88 52 0
76 68 52 0
88 68 52 0
